(set-info :smt-lib-version 2.6)
(set-logic UF)
(set-info :source |Benchmarks from the paper: "Extending Sledgehammer with SMT Solvers" by Jasmin Blanchette, Sascha Bohme, and Lawrence C. Paulson, CADE 2011.  Translated to SMT2 by Andrew Reynolds and Morgan Deters.|)
(set-info :category "industrial")
(set-info :status unknown)
(declare-sort S1 0)
(declare-sort S2 0)
(declare-sort S3 0)
(declare-sort S4 0)
(declare-sort S5 0)
(declare-sort S6 0)
(declare-sort S7 0)
(declare-sort S8 0)
(declare-sort S9 0)
(declare-sort S10 0)
(declare-sort S11 0)
(declare-sort S12 0)
(declare-sort S13 0)
(declare-sort S14 0)
(declare-sort S15 0)
(declare-sort S16 0)
(declare-sort S17 0)
(declare-sort S18 0)
(declare-sort S19 0)
(declare-sort S20 0)
(declare-sort S21 0)
(declare-sort S22 0)
(declare-sort S23 0)
(declare-sort S24 0)
(declare-sort S25 0)
(declare-sort S26 0)
(declare-sort S27 0)
(declare-sort S28 0)
(declare-sort S29 0)
(declare-sort S30 0)
(declare-sort S31 0)
(declare-sort S32 0)
(declare-sort S33 0)
(declare-sort S34 0)
(declare-sort S35 0)
(declare-sort S36 0)
(declare-sort S37 0)
(declare-sort S38 0)
(declare-sort S39 0)
(declare-sort S40 0)
(declare-sort S41 0)
(declare-sort S42 0)
(declare-sort S43 0)
(declare-sort S44 0)
(declare-sort S45 0)
(declare-sort S46 0)
(declare-sort S47 0)
(declare-sort S48 0)
(declare-sort S49 0)
(declare-sort S50 0)
(declare-sort S51 0)
(declare-sort S52 0)
(declare-sort S53 0)
(declare-sort S54 0)
(declare-sort S55 0)
(declare-sort S56 0)
(declare-sort S57 0)
(declare-sort S58 0)
(declare-sort S59 0)
(declare-sort S60 0)
(declare-sort S61 0)
(declare-sort S62 0)
(declare-sort S63 0)
(declare-sort S64 0)
(declare-sort S65 0)
(declare-sort S66 0)
(declare-fun f1 () S1)
(declare-fun f2 () S1)
(declare-fun f3 (S4 S3) S1)
(declare-fun f4 (S5 S2) S4)
(declare-fun f5 () S5)
(declare-fun f6 (S2 S6) S1)
(declare-fun f7 (S7 S8) S2)
(declare-fun f8 () S7)
(declare-fun f9 () S8)
(declare-fun f10 (S9 S6) S6)
(declare-fun f11 (S2) S9)
(declare-fun f12 () S2)
(declare-fun f13 (S10 S2) S2)
(declare-fun f14 () S10)
(declare-fun f15 () S2)
(declare-fun f16 () S6)
(declare-fun f17 (S11 S8) S1)
(declare-fun f18 (S8) S11)
(declare-fun f19 (S13 S12) S1)
(declare-fun f20 (S12) S13)
(declare-fun f21 (S15 S14) S1)
(declare-fun f22 (S14) S15)
(declare-fun f23 (S6 S2) S1)
(declare-fun f24 (S2) S6)
(declare-fun f25 (S8) S11)
(declare-fun f26 (S12) S13)
(declare-fun f27 (S14) S15)
(declare-fun f28 (S2) S6)
(declare-fun f29 (S16 S11) S11)
(declare-fun f30 (S8) S16)
(declare-fun f31 (S8 S11) S1)
(declare-fun f32 (S17 S13) S13)
(declare-fun f33 (S12) S17)
(declare-fun f34 (S12 S13) S1)
(declare-fun f35 (S18 S15) S15)
(declare-fun f36 (S14) S18)
(declare-fun f37 (S14 S15) S1)
(declare-fun f38 (S2) S9)
(declare-fun f39 (S8) S16)
(declare-fun f40 (S12) S17)
(declare-fun f41 (S14) S18)
(declare-fun f42 (S2) S9)
(declare-fun f43 (S8) S16)
(declare-fun f44 (S12) S17)
(declare-fun f45 (S14) S18)
(declare-fun f46 (S2) S9)
(declare-fun f47 (S8) S16)
(declare-fun f48 (S12) S17)
(declare-fun f49 (S14) S18)
(declare-fun f50 (S2) S9)
(declare-fun f51 (S19 S2) S5)
(declare-fun f52 () S19)
(declare-fun f53 (S20 S3) S2)
(declare-fun f54 (S21 S2) S20)
(declare-fun f55 () S21)
(declare-fun f56 (S22 S8) S8)
(declare-fun f57 () S22)
(declare-fun f58 (S23 S12) S12)
(declare-fun f59 () S23)
(declare-fun f60 (S24 S14) S14)
(declare-fun f61 () S24)
(declare-fun f62 () S10)
(declare-fun f63 () S11)
(declare-fun f64 () S13)
(declare-fun f65 () S15)
(declare-fun f66 () S6)
(declare-fun f67 (S25 S19) S11)
(declare-fun f68 (S26 S19) S25)
(declare-fun f69 (S5) S26)
(declare-fun f70 (S27 S3) S8)
(declare-fun f71 (S28 S2) S27)
(declare-fun f72 (S29 S2) S28)
(declare-fun f73 () S29)
(declare-fun f74 () S20)
(declare-fun f75 (S30 S31) S3)
(declare-fun f76 (S32 S7) S30)
(declare-fun f77 () S32)
(declare-fun f78 () S31)
(declare-fun f79 () S2)
(declare-fun f80 (S33 S3) S3)
(declare-fun f81 (S34 S2) S33)
(declare-fun f82 () S34)
(declare-fun f83 () S3)
(declare-fun f84 (S31) S11)
(declare-fun f85 (S35 S2) S22)
(declare-fun f86 () S35)
(declare-fun f87 (S36 S31) S31)
(declare-fun f88 () S36)
(declare-fun f89 (S8) S16)
(declare-fun f90 (S14) S18)
(declare-fun f91 (S12) S17)
(declare-fun f92 () S11)
(declare-fun f93 () S15)
(declare-fun f94 () S13)
(declare-fun f95 (S6) S6)
(declare-fun f96 (S15) S15)
(declare-fun f97 (S13) S13)
(declare-fun f98 (S11) S11)
(declare-fun f99 (S3) S6)
(declare-fun f100 (S37 S8) S36)
(declare-fun f101 () S37)
(declare-fun f102 (S38 S12) S24)
(declare-fun f103 () S38)
(declare-fun f104 (S14) S13)
(declare-fun f105 (S40 S39) S39)
(declare-fun f106 (S41 S14) S40)
(declare-fun f107 () S41)
(declare-fun f108 (S39) S15)
(declare-fun f109 () S31)
(declare-fun f110 () S39)
(declare-fun f111 () S14)
(declare-fun f112 (S42 S6) S2)
(declare-fun f113 () S42)
(declare-fun f114 (S43 S15) S14)
(declare-fun f115 () S43)
(declare-fun f116 (S44 S13) S12)
(declare-fun f117 () S44)
(declare-fun f118 (S45 S11) S8)
(declare-fun f119 () S45)
(declare-fun f120 (S46 S22) S36)
(declare-fun f121 () S46)
(declare-fun f122 (S48 S39) S31)
(declare-fun f123 (S49 S47) S48)
(declare-fun f124 () S49)
(declare-fun f125 (S51 S14) S31)
(declare-fun f126 (S52 S50) S51)
(declare-fun f127 () S52)
(declare-fun f128 (S54 S3) S31)
(declare-fun f129 (S55 S53) S54)
(declare-fun f130 () S55)
(declare-fun f131 (S56 S10) S33)
(declare-fun f132 () S56)
(declare-fun f133 (S58 S31) S39)
(declare-fun f134 (S59 S57) S58)
(declare-fun f135 () S59)
(declare-fun f136 (S61 S31) S14)
(declare-fun f137 (S62 S60) S61)
(declare-fun f138 () S62)
(declare-fun f139 (S63 S23) S24)
(declare-fun f140 () S63)
(declare-fun f141 (S64 S24) S40)
(declare-fun f142 () S64)
(declare-fun f143 (S60 S8) S12)
(declare-fun f144 (S57 S8) S14)
(declare-fun f145 (S53 S2) S8)
(declare-fun f146 (S50 S12) S8)
(declare-fun f147 (S47 S14) S8)
(declare-fun f148 (S65 S21) S20)
(declare-fun f149 (S66 S2) S65)
(declare-fun f150 () S66)
(assert (not (= f1 f2)))
(assert (forall ((?v0 S2) (?v1 S3)) (= (= (f3 (f4 f5 ?v0) ?v1) f1) (= (f6 (f7 f8 f9) (f10 (f11 f12) (f10 (f11 (f13 f14 f15)) f16))) f1))))
(assert (forall ((?v0 S8) (?v1 S8)) (= (= (f17 (f18 ?v0) ?v1) f1) (= ?v0 ?v1))))
(assert (forall ((?v0 S12) (?v1 S12)) (= (= (f19 (f20 ?v0) ?v1) f1) (= ?v0 ?v1))))
(assert (forall ((?v0 S14) (?v1 S14)) (= (= (f21 (f22 ?v0) ?v1) f1) (= ?v0 ?v1))))
(assert (forall ((?v0 S2) (?v1 S2)) (= (= (f23 (f24 ?v0) ?v1) f1) (= ?v0 ?v1))))
(assert (forall ((?v0 S8) (?v1 S8)) (= (= (f17 (f25 ?v0) ?v1) f1) (= ?v1 ?v0))))
(assert (forall ((?v0 S12) (?v1 S12)) (= (= (f19 (f26 ?v0) ?v1) f1) (= ?v1 ?v0))))
(assert (forall ((?v0 S14) (?v1 S14)) (= (= (f21 (f27 ?v0) ?v1) f1) (= ?v1 ?v0))))
(assert (forall ((?v0 S2) (?v1 S2)) (= (= (f23 (f28 ?v0) ?v1) f1) (= ?v1 ?v0))))
(assert (forall ((?v0 S8) (?v1 S11) (?v2 S8)) (= (= (f17 (f29 (f30 ?v0) ?v1) ?v2) f1) (or (= ?v2 ?v0) (= (f31 ?v2 ?v1) f1)))))
(assert (forall ((?v0 S12) (?v1 S13) (?v2 S12)) (= (= (f19 (f32 (f33 ?v0) ?v1) ?v2) f1) (or (= ?v2 ?v0) (= (f34 ?v2 ?v1) f1)))))
(assert (forall ((?v0 S14) (?v1 S15) (?v2 S14)) (= (= (f21 (f35 (f36 ?v0) ?v1) ?v2) f1) (or (= ?v2 ?v0) (= (f37 ?v2 ?v1) f1)))))
(assert (forall ((?v0 S2) (?v1 S6) (?v2 S2)) (= (= (f23 (f10 (f38 ?v0) ?v1) ?v2) f1) (or (= ?v2 ?v0) (= (f6 ?v2 ?v1) f1)))))
(assert (forall ((?v0 S8) (?v1 S11) (?v2 S8)) (= (= (f17 (f29 (f39 ?v0) ?v1) ?v2) f1) (and (= ?v0 ?v2) (= (f17 ?v1 ?v2) f1)))))
(assert (forall ((?v0 S12) (?v1 S13) (?v2 S12)) (= (= (f19 (f32 (f40 ?v0) ?v1) ?v2) f1) (and (= ?v0 ?v2) (= (f19 ?v1 ?v2) f1)))))
(assert (forall ((?v0 S14) (?v1 S15) (?v2 S14)) (= (= (f21 (f35 (f41 ?v0) ?v1) ?v2) f1) (and (= ?v0 ?v2) (= (f21 ?v1 ?v2) f1)))))
(assert (forall ((?v0 S2) (?v1 S6) (?v2 S2)) (= (= (f23 (f10 (f42 ?v0) ?v1) ?v2) f1) (and (= ?v0 ?v2) (= (f23 ?v1 ?v2) f1)))))
(assert (forall ((?v0 S8) (?v1 S11) (?v2 S8)) (= (= (f17 (f29 (f43 ?v0) ?v1) ?v2) f1) (and (= ?v2 ?v0) (= (f17 ?v1 ?v2) f1)))))
(assert (forall ((?v0 S12) (?v1 S13) (?v2 S12)) (= (= (f19 (f32 (f44 ?v0) ?v1) ?v2) f1) (and (= ?v2 ?v0) (= (f19 ?v1 ?v2) f1)))))
(assert (forall ((?v0 S14) (?v1 S15) (?v2 S14)) (= (= (f21 (f35 (f45 ?v0) ?v1) ?v2) f1) (and (= ?v2 ?v0) (= (f21 ?v1 ?v2) f1)))))
(assert (forall ((?v0 S2) (?v1 S6) (?v2 S2)) (= (= (f23 (f10 (f46 ?v0) ?v1) ?v2) f1) (and (= ?v2 ?v0) (= (f23 ?v1 ?v2) f1)))))
(assert (forall ((?v0 S8) (?v1 S11) (?v2 S8)) (= (= (f17 (f29 (f47 ?v0) ?v1) ?v2) f1) (=> (not (= ?v2 ?v0)) (= (f17 ?v1 ?v2) f1)))))
(assert (forall ((?v0 S12) (?v1 S13) (?v2 S12)) (= (= (f19 (f32 (f48 ?v0) ?v1) ?v2) f1) (=> (not (= ?v2 ?v0)) (= (f19 ?v1 ?v2) f1)))))
(assert (forall ((?v0 S14) (?v1 S15) (?v2 S14)) (= (= (f21 (f35 (f49 ?v0) ?v1) ?v2) f1) (=> (not (= ?v2 ?v0)) (= (f21 ?v1 ?v2) f1)))))
(assert (forall ((?v0 S2) (?v1 S6) (?v2 S2)) (= (= (f23 (f10 (f50 ?v0) ?v1) ?v2) f1) (=> (not (= ?v2 ?v0)) (= (f23 ?v1 ?v2) f1)))))
(assert (forall ((?v0 S2) (?v1 S2) (?v2 S3)) (= (= (f3 (f4 (f51 f52 ?v0) ?v1) ?v2) f1) (= (f7 f8 f9) f12))))
(assert (forall ((?v0 S2) (?v1 S3)) (= (f53 (f54 f55 ?v0) ?v1) ?v0)))
(assert (forall ((?v0 S8)) (= (f56 f57 ?v0) ?v0)))
(assert (forall ((?v0 S12)) (= (f58 f59 ?v0) ?v0)))
(assert (forall ((?v0 S14)) (= (f60 f61 ?v0) ?v0)))
(assert (forall ((?v0 S2)) (= (f13 f62 ?v0) ?v0)))
(assert (forall ((?v0 S8)) (= (= (f17 f63 ?v0) f1) false)))
(assert (forall ((?v0 S12)) (= (= (f19 f64 ?v0) f1) false)))
(assert (forall ((?v0 S14)) (= (= (f21 f65 ?v0) f1) false)))
(assert (forall ((?v0 S2)) (= (= (f23 f66 ?v0) f1) false)))
(assert (not (= (f17 (f67 (f68 (f69 f5) f52) f52) f9) f1)))
(assert (or (= f9 (f70 (f71 (f72 f73 (f53 f74 (f75 (f76 f77 f8) f78))) f79) (f80 (f81 f82 f12) f83))) (exists ((?v0 S8)) (and (= (f31 ?v0 (f84 f78)) f1) (= f9 (f56 (f85 f86 (f53 f74 (f75 (f76 f77 f8) f78))) ?v0))))))
(assert (forall ((?v0 S8)) (=> (= (f31 ?v0 (f84 f78)) f1) (not (= (f7 f8 ?v0) f79)))))
(assert (= (f31 f9 (f84 (f87 f88 f78))) f1))
(assert (or (= f9 (f70 (f71 (f72 f73 (f53 f74 (f75 (f76 f77 f8) f78))) f79) (f80 (f81 f82 f12) f83))) (exists ((?v0 S8)) (and (= (f31 ?v0 (f84 f78)) f1) (= f9 (f56 (f85 f86 (f53 f74 (f75 (f76 f77 f8) f78))) ?v0))))))
(assert (forall ((?v0 S2) (?v1 S2) (?v2 S6)) (=> (= (f6 ?v0 (f10 (f11 ?v1) ?v2)) f1) (=> (=> (= ?v0 ?v1) false) (=> (=> (= (f6 ?v0 ?v2) f1) false) false)))))
(assert (forall ((?v0 S8) (?v1 S8) (?v2 S11)) (=> (= (f31 ?v0 (f29 (f89 ?v1) ?v2)) f1) (=> (=> (= ?v0 ?v1) false) (=> (=> (= (f31 ?v0 ?v2) f1) false) false)))))
(assert (forall ((?v0 S14) (?v1 S14) (?v2 S15)) (=> (= (f37 ?v0 (f35 (f90 ?v1) ?v2)) f1) (=> (=> (= ?v0 ?v1) false) (=> (=> (= (f37 ?v0 ?v2) f1) false) false)))))
(assert (forall ((?v0 S12) (?v1 S12) (?v2 S13)) (=> (= (f34 ?v0 (f32 (f91 ?v1) ?v2)) f1) (=> (=> (= ?v0 ?v1) false) (=> (=> (= (f34 ?v0 ?v2) f1) false) false)))))
(assert (forall ((?v0 S2) (?v1 S6) (?v2 S2)) (=> (=> (not (= (f6 ?v0 ?v1) f1)) (= ?v0 ?v2)) (= (f6 ?v0 (f10 (f11 ?v2) ?v1)) f1))))
(assert (forall ((?v0 S8) (?v1 S11) (?v2 S8)) (=> (=> (not (= (f31 ?v0 ?v1) f1)) (= ?v0 ?v2)) (= (f31 ?v0 (f29 (f89 ?v2) ?v1)) f1))))
(assert (forall ((?v0 S14) (?v1 S15) (?v2 S14)) (=> (=> (not (= (f37 ?v0 ?v1) f1)) (= ?v0 ?v2)) (= (f37 ?v0 (f35 (f90 ?v2) ?v1)) f1))))
(assert (forall ((?v0 S12) (?v1 S13) (?v2 S12)) (=> (=> (not (= (f34 ?v0 ?v1) f1)) (= ?v0 ?v2)) (= (f34 ?v0 (f32 (f91 ?v2) ?v1)) f1))))
(assert (forall ((?v0 S8)) (=> (= (f31 ?v0 f92) f1) false)))
(assert (forall ((?v0 S2)) (=> (= (f6 ?v0 f16) f1) false)))
(assert (forall ((?v0 S14)) (=> (= (f37 ?v0 f93) f1) false)))
(assert (forall ((?v0 S12)) (=> (= (f34 ?v0 f94) f1) false)))
(assert (forall ((?v0 S2)) (= (f95 (f24 ?v0)) (f10 (f11 ?v0) f16))))
(assert (forall ((?v0 S14)) (= (f96 (f22 ?v0)) (f35 (f90 ?v0) f93))))
(assert (forall ((?v0 S12)) (= (f97 (f20 ?v0)) (f32 (f91 ?v0) f94))))
(assert (forall ((?v0 S8)) (= (f98 (f18 ?v0)) (f29 (f89 ?v0) f92))))
(assert (forall ((?v0 S2)) (= (f95 (f28 ?v0)) (f10 (f11 ?v0) f16))))
(assert (forall ((?v0 S14)) (= (f96 (f27 ?v0)) (f35 (f90 ?v0) f93))))
(assert (forall ((?v0 S12)) (= (f97 (f26 ?v0)) (f32 (f91 ?v0) f94))))
(assert (forall ((?v0 S8)) (= (f98 (f25 ?v0)) (f29 (f89 ?v0) f92))))
(assert (forall ((?v0 S2) (?v1 S6)) (= (f95 (f10 (f42 ?v0) ?v1)) (ite (= (f23 ?v1 ?v0) f1) (f10 (f11 ?v0) f16) f16))))
(assert (forall ((?v0 S14) (?v1 S15)) (= (f96 (f35 (f41 ?v0) ?v1)) (ite (= (f21 ?v1 ?v0) f1) (f35 (f90 ?v0) f93) f93))))
(assert (forall ((?v0 S12) (?v1 S13)) (= (f97 (f32 (f40 ?v0) ?v1)) (ite (= (f19 ?v1 ?v0) f1) (f32 (f91 ?v0) f94) f94))))
(assert (forall ((?v0 S8) (?v1 S11)) (= (f98 (f29 (f39 ?v0) ?v1)) (ite (= (f17 ?v1 ?v0) f1) (f29 (f89 ?v0) f92) f92))))
(assert (forall ((?v0 S2) (?v1 S6)) (= (f95 (f10 (f46 ?v0) ?v1)) (ite (= (f23 ?v1 ?v0) f1) (f10 (f11 ?v0) f16) f16))))
(assert (forall ((?v0 S14) (?v1 S15)) (= (f96 (f35 (f45 ?v0) ?v1)) (ite (= (f21 ?v1 ?v0) f1) (f35 (f90 ?v0) f93) f93))))
(assert (forall ((?v0 S12) (?v1 S13)) (= (f97 (f32 (f44 ?v0) ?v1)) (ite (= (f19 ?v1 ?v0) f1) (f32 (f91 ?v0) f94) f94))))
(assert (forall ((?v0 S8) (?v1 S11)) (= (f98 (f29 (f43 ?v0) ?v1)) (ite (= (f17 ?v1 ?v0) f1) (f29 (f89 ?v0) f92) f92))))
(assert (forall ((?v0 S2) (?v1 S6)) (not (= f16 (f10 (f11 ?v0) ?v1)))))
(assert (forall ((?v0 S14) (?v1 S15)) (not (= f93 (f35 (f90 ?v0) ?v1)))))
(assert (forall ((?v0 S12) (?v1 S13)) (not (= f94 (f32 (f91 ?v0) ?v1)))))
(assert (forall ((?v0 S8) (?v1 S11)) (not (= f92 (f29 (f89 ?v0) ?v1)))))
(assert (forall ((?v0 S2) (?v1 S6)) (not (= (f10 (f11 ?v0) ?v1) f16))))
(assert (forall ((?v0 S14) (?v1 S15)) (not (= (f35 (f90 ?v0) ?v1) f93))))
(assert (forall ((?v0 S12) (?v1 S13)) (not (= (f32 (f91 ?v0) ?v1) f94))))
(assert (forall ((?v0 S8) (?v1 S11)) (not (= (f29 (f89 ?v0) ?v1) f92))))
(assert (forall ((?v0 S2) (?v1 S2)) (= (= (f6 ?v0 (f10 (f11 ?v1) f16)) f1) (= ?v0 ?v1))))
(assert (forall ((?v0 S8) (?v1 S8)) (= (= (f31 ?v0 (f29 (f89 ?v1) f92)) f1) (= ?v0 ?v1))))
(assert (forall ((?v0 S14) (?v1 S14)) (= (= (f37 ?v0 (f35 (f90 ?v1) f93)) f1) (= ?v0 ?v1))))
(assert (forall ((?v0 S12) (?v1 S12)) (= (= (f34 ?v0 (f32 (f91 ?v1) f94)) f1) (= ?v0 ?v1))))
(assert (forall ((?v0 S2) (?v1 S2) (?v2 S2) (?v3 S2)) (= (= (f10 (f11 ?v0) (f10 (f11 ?v1) f16)) (f10 (f11 ?v2) (f10 (f11 ?v3) f16))) (or (and (= ?v0 ?v2) (= ?v1 ?v3)) (and (= ?v0 ?v3) (= ?v1 ?v2))))))
(assert (forall ((?v0 S14) (?v1 S14) (?v2 S14) (?v3 S14)) (= (= (f35 (f90 ?v0) (f35 (f90 ?v1) f93)) (f35 (f90 ?v2) (f35 (f90 ?v3) f93))) (or (and (= ?v0 ?v2) (= ?v1 ?v3)) (and (= ?v0 ?v3) (= ?v1 ?v2))))))
(assert (forall ((?v0 S12) (?v1 S12) (?v2 S12) (?v3 S12)) (= (= (f32 (f91 ?v0) (f32 (f91 ?v1) f94)) (f32 (f91 ?v2) (f32 (f91 ?v3) f94))) (or (and (= ?v0 ?v2) (= ?v1 ?v3)) (and (= ?v0 ?v3) (= ?v1 ?v2))))))
(assert (forall ((?v0 S8) (?v1 S8) (?v2 S8) (?v3 S8)) (= (= (f29 (f89 ?v0) (f29 (f89 ?v1) f92)) (f29 (f89 ?v2) (f29 (f89 ?v3) f92))) (or (and (= ?v0 ?v2) (= ?v1 ?v3)) (and (= ?v0 ?v3) (= ?v1 ?v2))))))
(assert (forall ((?v0 S11) (?v1 S8)) (=> (= ?v0 f92) (not (= (f31 ?v1 ?v0) f1)))))
(assert (forall ((?v0 S6) (?v1 S2)) (=> (= ?v0 f16) (not (= (f6 ?v1 ?v0) f1)))))
(assert (forall ((?v0 S15) (?v1 S14)) (=> (= ?v0 f93) (not (= (f37 ?v1 ?v0) f1)))))
(assert (forall ((?v0 S13) (?v1 S12)) (=> (= ?v0 f94) (not (= (f34 ?v1 ?v0) f1)))))
(assert (forall ((?v0 S6)) (= (= (f95 ?v0) f16) (forall ((?v1 S2)) (not (= (f23 ?v0 ?v1) f1))))))
(assert (forall ((?v0 S13)) (= (= (f97 ?v0) f94) (forall ((?v1 S12)) (not (= (f19 ?v0 ?v1) f1))))))
(assert (forall ((?v0 S15)) (= (= (f96 ?v0) f93) (forall ((?v1 S14)) (not (= (f21 ?v0 ?v1) f1))))))
(assert (forall ((?v0 S11)) (= (= (f98 ?v0) f92) (forall ((?v1 S8)) (not (= (f17 ?v0 ?v1) f1))))))
(assert (forall ((?v0 S8)) (= (= (f31 ?v0 f92) f1) false)))
(assert (forall ((?v0 S2)) (= (= (f6 ?v0 f16) f1) false)))
(assert (forall ((?v0 S14)) (= (= (f37 ?v0 f93) f1) false)))
(assert (forall ((?v0 S12)) (= (= (f34 ?v0 f94) f1) false)))
(assert (forall ((?v0 S6)) (= (= f16 (f95 ?v0)) (forall ((?v1 S2)) (not (= (f23 ?v0 ?v1) f1))))))
(assert (forall ((?v0 S13)) (= (= f94 (f97 ?v0)) (forall ((?v1 S12)) (not (= (f19 ?v0 ?v1) f1))))))
(assert (forall ((?v0 S15)) (= (= f93 (f96 ?v0)) (forall ((?v1 S14)) (not (= (f21 ?v0 ?v1) f1))))))
(assert (forall ((?v0 S11)) (= (= f92 (f98 ?v0)) (forall ((?v1 S8)) (not (= (f17 ?v0 ?v1) f1))))))
(assert (forall ((?v0 S11)) (= (forall ((?v1 S8)) (=> (= (f31 ?v1 f92) f1) (= (f17 ?v0 ?v1) f1))) true)))
(assert (forall ((?v0 S6)) (= (forall ((?v1 S2)) (=> (= (f6 ?v1 f16) f1) (= (f23 ?v0 ?v1) f1))) true)))
(assert (forall ((?v0 S15)) (= (forall ((?v1 S14)) (=> (= (f37 ?v1 f93) f1) (= (f21 ?v0 ?v1) f1))) true)))
(assert (forall ((?v0 S13)) (= (forall ((?v1 S12)) (=> (= (f34 ?v1 f94) f1) (= (f19 ?v0 ?v1) f1))) true)))
(assert (forall ((?v0 S11)) (= (exists ((?v1 S8)) (and (= (f31 ?v1 f92) f1) (= (f17 ?v0 ?v1) f1))) false)))
(assert (forall ((?v0 S6)) (= (exists ((?v1 S2)) (and (= (f6 ?v1 f16) f1) (= (f23 ?v0 ?v1) f1))) false)))
(assert (forall ((?v0 S15)) (= (exists ((?v1 S14)) (and (= (f37 ?v1 f93) f1) (= (f21 ?v0 ?v1) f1))) false)))
(assert (forall ((?v0 S13)) (= (exists ((?v1 S12)) (and (= (f34 ?v1 f94) f1) (= (f19 ?v0 ?v1) f1))) false)))
(assert (forall ((?v0 S11)) (= (exists ((?v1 S8)) (= (f31 ?v1 ?v0) f1)) (not (= ?v0 f92)))))
(assert (forall ((?v0 S6)) (= (exists ((?v1 S2)) (= (f6 ?v1 ?v0) f1)) (not (= ?v0 f16)))))
(assert (forall ((?v0 S15)) (= (exists ((?v1 S14)) (= (f37 ?v1 ?v0) f1)) (not (= ?v0 f93)))))
(assert (forall ((?v0 S13)) (= (exists ((?v1 S12)) (= (f34 ?v1 ?v0) f1)) (not (= ?v0 f94)))))
(assert (forall ((?v0 S11)) (= (forall ((?v1 S8)) (not (= (f31 ?v1 ?v0) f1))) (= ?v0 f92))))
(assert (forall ((?v0 S6)) (= (forall ((?v1 S2)) (not (= (f6 ?v1 ?v0) f1))) (= ?v0 f16))))
(assert (forall ((?v0 S15)) (= (forall ((?v1 S14)) (not (= (f37 ?v1 ?v0) f1))) (= ?v0 f93))))
(assert (forall ((?v0 S13)) (= (forall ((?v1 S12)) (not (= (f34 ?v1 ?v0) f1))) (= ?v0 f94))))
(assert (= f16 (f95 f66)))
(assert (= f94 (f97 f64)))
(assert (= f93 (f96 f65)))
(assert (= f92 (f98 f63)))
(assert (forall ((?v0 S2) (?v1 S6)) (=> (= (f6 ?v0 ?v1) f1) (= (f10 (f11 ?v0) ?v1) ?v1))))
(assert (forall ((?v0 S8) (?v1 S11)) (=> (= (f31 ?v0 ?v1) f1) (= (f29 (f89 ?v0) ?v1) ?v1))))
(assert (forall ((?v0 S14) (?v1 S15)) (=> (= (f37 ?v0 ?v1) f1) (= (f35 (f90 ?v0) ?v1) ?v1))))
(assert (forall ((?v0 S12) (?v1 S13)) (=> (= (f34 ?v0 ?v1) f1) (= (f32 (f91 ?v0) ?v1) ?v1))))
(assert (forall ((?v0 S2) (?v1 S6) (?v2 S2)) (=> (= (f6 ?v0 ?v1) f1) (= (f6 ?v0 (f10 (f11 ?v2) ?v1)) f1))))
(assert (forall ((?v0 S8) (?v1 S11) (?v2 S8)) (=> (= (f31 ?v0 ?v1) f1) (= (f31 ?v0 (f29 (f89 ?v2) ?v1)) f1))))
(assert (forall ((?v0 S14) (?v1 S15) (?v2 S14)) (=> (= (f37 ?v0 ?v1) f1) (= (f37 ?v0 (f35 (f90 ?v2) ?v1)) f1))))
(assert (forall ((?v0 S12) (?v1 S13) (?v2 S12)) (=> (= (f34 ?v0 ?v1) f1) (= (f34 ?v0 (f32 (f91 ?v2) ?v1)) f1))))
(assert (forall ((?v0 S2) (?v1 S6) (?v2 S6)) (let ((?v_0 (f11 ?v0))) (=> (not (= (f6 ?v0 ?v1) f1)) (=> (not (= (f6 ?v0 ?v2) f1)) (= (= (f10 ?v_0 ?v1) (f10 ?v_0 ?v2)) (= ?v1 ?v2)))))))
(assert (forall ((?v0 S8) (?v1 S11) (?v2 S11)) (let ((?v_0 (f89 ?v0))) (=> (not (= (f31 ?v0 ?v1) f1)) (=> (not (= (f31 ?v0 ?v2) f1)) (= (= (f29 ?v_0 ?v1) (f29 ?v_0 ?v2)) (= ?v1 ?v2)))))))
(assert (forall ((?v0 S14) (?v1 S15) (?v2 S15)) (let ((?v_0 (f90 ?v0))) (=> (not (= (f37 ?v0 ?v1) f1)) (=> (not (= (f37 ?v0 ?v2) f1)) (= (= (f35 ?v_0 ?v1) (f35 ?v_0 ?v2)) (= ?v1 ?v2)))))))
(assert (forall ((?v0 S12) (?v1 S13) (?v2 S13)) (let ((?v_0 (f91 ?v0))) (=> (not (= (f34 ?v0 ?v1) f1)) (=> (not (= (f34 ?v0 ?v2) f1)) (= (= (f32 ?v_0 ?v1) (f32 ?v_0 ?v2)) (= ?v1 ?v2)))))))
(assert (forall ((?v0 S2) (?v1 S6) (?v2 S2)) (= (= (f23 (f10 (f11 ?v0) ?v1) ?v2) f1) (or (= ?v0 ?v2) (= (f23 ?v1 ?v2) f1)))))
(assert (forall ((?v0 S14) (?v1 S15) (?v2 S14)) (= (= (f21 (f35 (f90 ?v0) ?v1) ?v2) f1) (or (= ?v0 ?v2) (= (f21 ?v1 ?v2) f1)))))
(assert (forall ((?v0 S12) (?v1 S13) (?v2 S12)) (= (= (f19 (f32 (f91 ?v0) ?v1) ?v2) f1) (or (= ?v0 ?v2) (= (f19 ?v1 ?v2) f1)))))
(assert (forall ((?v0 S8) (?v1 S11) (?v2 S8)) (= (= (f17 (f29 (f89 ?v0) ?v1) ?v2) f1) (or (= ?v0 ?v2) (= (f17 ?v1 ?v2) f1)))))
(assert (forall ((?v0 S2) (?v1 S2) (?v2 S6)) (= (= (f6 ?v0 (f10 (f11 ?v1) ?v2)) f1) (or (= ?v0 ?v1) (= (f6 ?v0 ?v2) f1)))))
(assert (forall ((?v0 S8) (?v1 S8) (?v2 S11)) (= (= (f31 ?v0 (f29 (f89 ?v1) ?v2)) f1) (or (= ?v0 ?v1) (= (f31 ?v0 ?v2) f1)))))
(assert (forall ((?v0 S14) (?v1 S14) (?v2 S15)) (= (= (f37 ?v0 (f35 (f90 ?v1) ?v2)) f1) (or (= ?v0 ?v1) (= (f37 ?v0 ?v2) f1)))))
(assert (forall ((?v0 S12) (?v1 S12) (?v2 S13)) (= (= (f34 ?v0 (f32 (f91 ?v1) ?v2)) f1) (or (= ?v0 ?v1) (= (f34 ?v0 ?v2) f1)))))
(assert (forall ((?v0 S2) (?v1 S2) (?v2 S6)) (let ((?v_1 (f11 ?v0)) (?v_0 (f11 ?v1))) (= (f10 ?v_1 (f10 ?v_0 ?v2)) (f10 ?v_0 (f10 ?v_1 ?v2))))))
(assert (forall ((?v0 S14) (?v1 S14) (?v2 S15)) (let ((?v_1 (f90 ?v0)) (?v_0 (f90 ?v1))) (= (f35 ?v_1 (f35 ?v_0 ?v2)) (f35 ?v_0 (f35 ?v_1 ?v2))))))
(assert (forall ((?v0 S12) (?v1 S12) (?v2 S13)) (let ((?v_1 (f91 ?v0)) (?v_0 (f91 ?v1))) (= (f32 ?v_1 (f32 ?v_0 ?v2)) (f32 ?v_0 (f32 ?v_1 ?v2))))))
(assert (forall ((?v0 S8) (?v1 S8) (?v2 S11)) (let ((?v_1 (f89 ?v0)) (?v_0 (f89 ?v1))) (= (f29 ?v_1 (f29 ?v_0 ?v2)) (f29 ?v_0 (f29 ?v_1 ?v2))))))
(assert (forall ((?v0 S2) (?v1 S6)) (let ((?v_0 (f11 ?v0))) (let ((?v_1 (f10 ?v_0 ?v1))) (= (f10 ?v_0 ?v_1) ?v_1)))))
(assert (forall ((?v0 S14) (?v1 S15)) (let ((?v_0 (f90 ?v0))) (let ((?v_1 (f35 ?v_0 ?v1))) (= (f35 ?v_0 ?v_1) ?v_1)))))
(assert (forall ((?v0 S12) (?v1 S13)) (let ((?v_0 (f91 ?v0))) (let ((?v_1 (f32 ?v_0 ?v1))) (= (f32 ?v_0 ?v_1) ?v_1)))))
(assert (forall ((?v0 S8) (?v1 S11)) (let ((?v_0 (f89 ?v0))) (let ((?v_1 (f29 ?v_0 ?v1))) (= (f29 ?v_0 ?v_1) ?v_1)))))
(assert (forall ((?v0 S2) (?v1 S6)) (= (f10 (f11 ?v0) (f95 ?v1)) (f95 (f10 (f50 ?v0) ?v1)))))
(assert (forall ((?v0 S14) (?v1 S15)) (= (f35 (f90 ?v0) (f96 ?v1)) (f96 (f35 (f49 ?v0) ?v1)))))
(assert (forall ((?v0 S12) (?v1 S13)) (= (f32 (f91 ?v0) (f97 ?v1)) (f97 (f32 (f48 ?v0) ?v1)))))
(assert (forall ((?v0 S8) (?v1 S11)) (= (f29 (f89 ?v0) (f98 ?v1)) (f98 (f29 (f47 ?v0) ?v1)))))
(assert (forall ((?v0 S2) (?v1 S6)) (= (f10 (f11 ?v0) ?v1) (f95 (f10 (f38 ?v0) ?v1)))))
(assert (forall ((?v0 S8) (?v1 S11)) (= (f29 (f89 ?v0) ?v1) (f98 (f29 (f30 ?v0) ?v1)))))
(assert (forall ((?v0 S14) (?v1 S15)) (= (f35 (f90 ?v0) ?v1) (f96 (f35 (f36 ?v0) ?v1)))))
(assert (forall ((?v0 S12) (?v1 S13)) (= (f32 (f91 ?v0) ?v1) (f97 (f32 (f33 ?v0) ?v1)))))
(assert (forall ((?v0 S2) (?v1 S6)) (= (f6 ?v0 (f10 (f11 ?v0) ?v1)) f1)))
(assert (forall ((?v0 S8) (?v1 S11)) (= (f31 ?v0 (f29 (f89 ?v0) ?v1)) f1)))
(assert (forall ((?v0 S14) (?v1 S15)) (= (f37 ?v0 (f35 (f90 ?v0) ?v1)) f1)))
(assert (forall ((?v0 S12) (?v1 S13)) (= (f34 ?v0 (f32 (f91 ?v0) ?v1)) f1)))
(assert (forall ((?v0 S2) (?v1 S6)) (= (f10 (f11 ?v0) ?v1) (f95 (f10 (f38 ?v0) ?v1)))))
(assert (forall ((?v0 S8) (?v1 S11)) (= (f29 (f89 ?v0) ?v1) (f98 (f29 (f30 ?v0) ?v1)))))
(assert (forall ((?v0 S14) (?v1 S15)) (= (f35 (f90 ?v0) ?v1) (f96 (f35 (f36 ?v0) ?v1)))))
(assert (forall ((?v0 S12) (?v1 S13)) (= (f32 (f91 ?v0) ?v1) (f97 (f32 (f33 ?v0) ?v1)))))
(assert (forall ((?v0 S2) (?v1 S2)) (=> (= (f10 (f11 ?v0) f16) (f10 (f11 ?v1) f16)) (= ?v0 ?v1))))
(assert (forall ((?v0 S14) (?v1 S14)) (=> (= (f35 (f90 ?v0) f93) (f35 (f90 ?v1) f93)) (= ?v0 ?v1))))
(assert (forall ((?v0 S12) (?v1 S12)) (=> (= (f32 (f91 ?v0) f94) (f32 (f91 ?v1) f94)) (= ?v0 ?v1))))
(assert (forall ((?v0 S8) (?v1 S8)) (=> (= (f29 (f89 ?v0) f92) (f29 (f89 ?v1) f92)) (= ?v0 ?v1))))
(assert (forall ((?v0 S2) (?v1 S2)) (=> (= (f6 ?v0 (f10 (f11 ?v1) f16)) f1) (=> (=> (= ?v0 ?v1) false) false))))
(assert (forall ((?v0 S8) (?v1 S8)) (=> (= (f31 ?v0 (f29 (f89 ?v1) f92)) f1) (=> (=> (= ?v0 ?v1) false) false))))
(assert (forall ((?v0 S14) (?v1 S14)) (=> (= (f37 ?v0 (f35 (f90 ?v1) f93)) f1) (=> (=> (= ?v0 ?v1) false) false))))
(assert (forall ((?v0 S12) (?v1 S12)) (=> (= (f34 ?v0 (f32 (f91 ?v1) f94)) f1) (=> (=> (= ?v0 ?v1) false) false))))
(assert (forall ((?v0 S2) (?v1 S2) (?v2 S2)) (let ((?v_0 (f70 (f71 (f72 f73 ?v1) ?v2) f83))) (= (f56 (f85 f86 ?v0) ?v_0) ?v_0))))
(assert (= (f53 f74 f83) f12))
(assert (forall ((?v0 S2) (?v1 S3)) (= (f99 (f80 (f81 f82 ?v0) ?v1)) (f10 (f11 ?v0) (f99 ?v1)))))
(assert (forall ((?v0 S8) (?v1 S31)) (= (f84 (f87 (f100 f101 ?v0) ?v1)) (f29 (f89 ?v0) (f84 ?v1)))))
(assert (forall ((?v0 S12) (?v1 S14)) (= (f104 (f60 (f102 f103 ?v0) ?v1)) (f32 (f91 ?v0) (f104 ?v1)))))
(assert (forall ((?v0 S14) (?v1 S39)) (= (f108 (f105 (f106 f107 ?v0) ?v1)) (f35 (f90 ?v0) (f108 ?v1)))))
(assert (forall ((?v0 S3)) (= (= (f99 ?v0) f16) (= ?v0 f83))))
(assert (forall ((?v0 S31)) (= (= (f84 ?v0) f92) (= ?v0 f109))))
(assert (forall ((?v0 S39)) (= (= (f108 ?v0) f93) (= ?v0 f110))))
(assert (forall ((?v0 S14)) (= (= (f104 ?v0) f94) (= ?v0 f111))))
(assert (forall ((?v0 S3)) (= (= f16 (f99 ?v0)) (= ?v0 f83))))
(assert (forall ((?v0 S31)) (= (= f92 (f84 ?v0)) (= ?v0 f109))))
(assert (forall ((?v0 S39)) (= (= f93 (f108 ?v0)) (= ?v0 f110))))
(assert (forall ((?v0 S14)) (= (= f94 (f104 ?v0)) (= ?v0 f111))))
(assert (= (f99 f83) f16))
(assert (= (f84 f109) f92))
(assert (= (f108 f110) f93))
(assert (= (f104 f111) f94))
(assert (forall ((?v0 S5) (?v1 S19) (?v2 S19) (?v3 S2) (?v4 S2) (?v5 S3)) (= (= (f17 (f67 (f68 (f69 ?v0) ?v1) ?v2) (f70 (f71 (f72 f73 ?v3) ?v4) ?v5)) f1) (= (f3 (f4 (f51 ?v1 ?v3) ?v4) ?v5) f1))))
(assert (forall ((?v0 S2)) (= (f112 f113 (f10 (f11 ?v0) f16)) ?v0)))
(assert (forall ((?v0 S14)) (= (f114 f115 (f35 (f90 ?v0) f93)) ?v0)))
(assert (forall ((?v0 S12)) (= (f116 f117 (f32 (f91 ?v0) f94)) ?v0)))
(assert (forall ((?v0 S8)) (= (f118 f119 (f29 (f89 ?v0) f92)) ?v0)))
(assert (forall ((?v0 S22) (?v1 S31)) (= (= f109 (f87 (f120 f121 ?v0) ?v1)) (= ?v1 f109))))
(assert (forall ((?v0 S7) (?v1 S31)) (= (= f83 (f75 (f76 f77 ?v0) ?v1)) (= ?v1 f109))))
(assert (forall ((?v0 S47) (?v1 S39)) (= (= f109 (f122 (f123 f124 ?v0) ?v1)) (= ?v1 f110))))
(assert (forall ((?v0 S50) (?v1 S14)) (= (= f109 (f125 (f126 f127 ?v0) ?v1)) (= ?v1 f111))))
(assert (forall ((?v0 S53) (?v1 S3)) (= (= f109 (f128 (f129 f130 ?v0) ?v1)) (= ?v1 f83))))
(assert (forall ((?v0 S10) (?v1 S3)) (= (= f83 (f80 (f131 f132 ?v0) ?v1)) (= ?v1 f83))))
(assert (forall ((?v0 S57) (?v1 S31)) (= (= f110 (f133 (f134 f135 ?v0) ?v1)) (= ?v1 f109))))
(assert (forall ((?v0 S60) (?v1 S31)) (= (= f111 (f136 (f137 f138 ?v0) ?v1)) (= ?v1 f109))))
(assert (forall ((?v0 S23) (?v1 S14)) (= (= f111 (f60 (f139 f140 ?v0) ?v1)) (= ?v1 f111))))
(assert (forall ((?v0 S24) (?v1 S39)) (= (= f110 (f105 (f141 f142 ?v0) ?v1)) (= ?v1 f110))))
(assert (forall ((?v0 S22)) (= (f87 (f120 f121 ?v0) f109) f109)))
(assert (forall ((?v0 S7)) (= (f75 (f76 f77 ?v0) f109) f83)))
(assert (forall ((?v0 S57)) (= (f133 (f134 f135 ?v0) f109) f110)))
(assert (forall ((?v0 S60)) (= (f136 (f137 f138 ?v0) f109) f111)))
(assert (forall ((?v0 S10)) (= (f80 (f131 f132 ?v0) f83) f83)))
(assert (forall ((?v0 S47)) (= (f122 (f123 f124 ?v0) f110) f109)))
(assert (forall ((?v0 S50)) (= (f125 (f126 f127 ?v0) f111) f109)))
(assert (forall ((?v0 S53)) (= (f128 (f129 f130 ?v0) f83) f109)))
(assert (forall ((?v0 S23)) (= (f60 (f139 f140 ?v0) f111) f111)))
(assert (forall ((?v0 S24)) (= (f105 (f141 f142 ?v0) f110) f110)))
(assert (forall ((?v0 S22) (?v1 S31)) (= (= (f87 (f120 f121 ?v0) ?v1) f109) (= ?v1 f109))))
(assert (forall ((?v0 S7) (?v1 S31)) (= (= (f75 (f76 f77 ?v0) ?v1) f83) (= ?v1 f109))))
(assert (forall ((?v0 S47) (?v1 S39)) (= (= (f122 (f123 f124 ?v0) ?v1) f109) (= ?v1 f110))))
(assert (forall ((?v0 S50) (?v1 S14)) (= (= (f125 (f126 f127 ?v0) ?v1) f109) (= ?v1 f111))))
(assert (forall ((?v0 S53) (?v1 S3)) (= (= (f128 (f129 f130 ?v0) ?v1) f109) (= ?v1 f83))))
(assert (forall ((?v0 S10) (?v1 S3)) (= (= (f80 (f131 f132 ?v0) ?v1) f83) (= ?v1 f83))))
(assert (forall ((?v0 S57) (?v1 S31)) (= (= (f133 (f134 f135 ?v0) ?v1) f110) (= ?v1 f109))))
(assert (forall ((?v0 S60) (?v1 S31)) (= (= (f136 (f137 f138 ?v0) ?v1) f111) (= ?v1 f109))))
(assert (forall ((?v0 S23) (?v1 S14)) (= (= (f60 (f139 f140 ?v0) ?v1) f111) (= ?v1 f111))))
(assert (forall ((?v0 S24) (?v1 S39)) (= (= (f105 (f141 f142 ?v0) ?v1) f110) (= ?v1 f110))))
(assert (forall ((?v0 S3)) (= (= (f53 f74 ?v0) f79) (= (f6 f79 (f99 ?v0)) f1))))
(assert (forall ((?v0 S8) (?v1 S31) (?v2 S8) (?v3 S31)) (= (= (f87 (f100 f101 ?v0) ?v1) (f87 (f100 f101 ?v2) ?v3)) (and (= ?v0 ?v2) (= ?v1 ?v3)))))
(assert (forall ((?v0 S12) (?v1 S14) (?v2 S12) (?v3 S14)) (= (= (f60 (f102 f103 ?v0) ?v1) (f60 (f102 f103 ?v2) ?v3)) (and (= ?v0 ?v2) (= ?v1 ?v3)))))
(assert (forall ((?v0 S14) (?v1 S39) (?v2 S14) (?v3 S39)) (= (= (f105 (f106 f107 ?v0) ?v1) (f105 (f106 f107 ?v2) ?v3)) (and (= ?v0 ?v2) (= ?v1 ?v3)))))
(assert (forall ((?v0 S2) (?v1 S3) (?v2 S2) (?v3 S3)) (= (= (f80 (f81 f82 ?v0) ?v1) (f80 (f81 f82 ?v2) ?v3)) (and (= ?v0 ?v2) (= ?v1 ?v3)))))
(assert (forall ((?v0 S8) (?v1 S31)) (not (= (f87 (f100 f101 ?v0) ?v1) ?v1))))
(assert (forall ((?v0 S12) (?v1 S14)) (not (= (f60 (f102 f103 ?v0) ?v1) ?v1))))
(assert (forall ((?v0 S14) (?v1 S39)) (not (= (f105 (f106 f107 ?v0) ?v1) ?v1))))
(assert (forall ((?v0 S2) (?v1 S3)) (not (= (f80 (f81 f82 ?v0) ?v1) ?v1))))
(assert (forall ((?v0 S31) (?v1 S8)) (not (= ?v0 (f87 (f100 f101 ?v1) ?v0)))))
(assert (forall ((?v0 S14) (?v1 S12)) (not (= ?v0 (f60 (f102 f103 ?v1) ?v0)))))
(assert (forall ((?v0 S39) (?v1 S14)) (not (= ?v0 (f105 (f106 f107 ?v1) ?v0)))))
(assert (forall ((?v0 S3) (?v1 S2)) (not (= ?v0 (f80 (f81 f82 ?v1) ?v0)))))
(assert (forall ((?v0 S2) (?v1 S2) (?v2 S3) (?v3 S2) (?v4 S2) (?v5 S3)) (= (= (f70 (f71 (f72 f73 ?v0) ?v1) ?v2) (f70 (f71 (f72 f73 ?v3) ?v4) ?v5)) (and (= ?v0 ?v3) (and (= ?v1 ?v4) (= ?v2 ?v5))))))
(assert (forall ((?v0 S31)) (= (f87 (f120 f121 f57) ?v0) ?v0)))
(assert (forall ((?v0 S14)) (= (f60 (f139 f140 f59) ?v0) ?v0)))
(assert (forall ((?v0 S39)) (= (f105 (f141 f142 f61) ?v0) ?v0)))
(assert (forall ((?v0 S3)) (= (f80 (f131 f132 f62) ?v0) ?v0)))
(assert (forall ((?v0 S2) (?v1 S2) (?v2 S3)) (=> (= (f6 ?v0 (f99 (f80 (f81 f82 ?v1) ?v2))) f1) (or (= ?v0 ?v1) (= (f6 ?v0 (f99 ?v2)) f1)))))
(assert (forall ((?v0 S8) (?v1 S8) (?v2 S31)) (=> (= (f31 ?v0 (f84 (f87 (f100 f101 ?v1) ?v2))) f1) (or (= ?v0 ?v1) (= (f31 ?v0 (f84 ?v2)) f1)))))
(assert (forall ((?v0 S12) (?v1 S12) (?v2 S14)) (=> (= (f34 ?v0 (f104 (f60 (f102 f103 ?v1) ?v2))) f1) (or (= ?v0 ?v1) (= (f34 ?v0 (f104 ?v2)) f1)))))
(assert (forall ((?v0 S14) (?v1 S14) (?v2 S39)) (=> (= (f37 ?v0 (f108 (f105 (f106 f107 ?v1) ?v2))) f1) (or (= ?v0 ?v1) (= (f37 ?v0 (f108 ?v2)) f1)))))
(assert (forall ((?v0 S14) (?v1 S39)) (not (= (f105 (f106 f107 ?v0) ?v1) f110))))
(assert (forall ((?v0 S12) (?v1 S14)) (not (= (f60 (f102 f103 ?v0) ?v1) f111))))
(assert (forall ((?v0 S2) (?v1 S3)) (not (= (f80 (f81 f82 ?v0) ?v1) f83))))
(assert (forall ((?v0 S8) (?v1 S31)) (not (= (f87 (f100 f101 ?v0) ?v1) f109))))
(assert (forall ((?v0 S14) (?v1 S39)) (not (= f110 (f105 (f106 f107 ?v0) ?v1)))))
(assert (forall ((?v0 S12) (?v1 S14)) (not (= f111 (f60 (f102 f103 ?v0) ?v1)))))
(assert (forall ((?v0 S2) (?v1 S3)) (not (= f83 (f80 (f81 f82 ?v0) ?v1)))))
(assert (forall ((?v0 S8) (?v1 S31)) (not (= f109 (f87 (f100 f101 ?v0) ?v1)))))
(assert (forall ((?v0 S22) (?v1 S8) (?v2 S31)) (let ((?v_0 (f120 f121 ?v0))) (= (f87 ?v_0 (f87 (f100 f101 ?v1) ?v2)) (f87 (f100 f101 (f56 ?v0 ?v1)) (f87 ?v_0 ?v2))))))
(assert (forall ((?v0 S7) (?v1 S8) (?v2 S31)) (let ((?v_0 (f76 f77 ?v0))) (= (f75 ?v_0 (f87 (f100 f101 ?v1) ?v2)) (f80 (f81 f82 (f7 ?v0 ?v1)) (f75 ?v_0 ?v2))))))
(assert (forall ((?v0 S10) (?v1 S2) (?v2 S3)) (let ((?v_0 (f131 f132 ?v0))) (= (f80 ?v_0 (f80 (f81 f82 ?v1) ?v2)) (f80 (f81 f82 (f13 ?v0 ?v1)) (f80 ?v_0 ?v2))))))
(assert (forall ((?v0 S23) (?v1 S12) (?v2 S14)) (let ((?v_0 (f139 f140 ?v0))) (= (f60 ?v_0 (f60 (f102 f103 ?v1) ?v2)) (f60 (f102 f103 (f58 ?v0 ?v1)) (f60 ?v_0 ?v2))))))
(assert (forall ((?v0 S24) (?v1 S14) (?v2 S39)) (let ((?v_0 (f141 f142 ?v0))) (= (f105 ?v_0 (f105 (f106 f107 ?v1) ?v2)) (f105 (f106 f107 (f60 ?v0 ?v1)) (f105 ?v_0 ?v2))))))
(assert (forall ((?v0 S60) (?v1 S8) (?v2 S31)) (let ((?v_0 (f137 f138 ?v0))) (= (f136 ?v_0 (f87 (f100 f101 ?v1) ?v2)) (f60 (f102 f103 (f143 ?v0 ?v1)) (f136 ?v_0 ?v2))))))
(assert (forall ((?v0 S57) (?v1 S8) (?v2 S31)) (let ((?v_0 (f134 f135 ?v0))) (= (f133 ?v_0 (f87 (f100 f101 ?v1) ?v2)) (f105 (f106 f107 (f144 ?v0 ?v1)) (f133 ?v_0 ?v2))))))
(assert (forall ((?v0 S53) (?v1 S2) (?v2 S3)) (let ((?v_0 (f129 f130 ?v0))) (= (f128 ?v_0 (f80 (f81 f82 ?v1) ?v2)) (f87 (f100 f101 (f145 ?v0 ?v1)) (f128 ?v_0 ?v2))))))
(assert (forall ((?v0 S50) (?v1 S12) (?v2 S14)) (let ((?v_0 (f126 f127 ?v0))) (= (f125 ?v_0 (f60 (f102 f103 ?v1) ?v2)) (f87 (f100 f101 (f146 ?v0 ?v1)) (f125 ?v_0 ?v2))))))
(assert (forall ((?v0 S47) (?v1 S14) (?v2 S39)) (let ((?v_0 (f123 f124 ?v0))) (= (f122 ?v_0 (f105 (f106 f107 ?v1) ?v2)) (f87 (f100 f101 (f147 ?v0 ?v1)) (f122 ?v_0 ?v2))))))
(assert (forall ((?v0 S22) (?v1 S31) (?v2 S22)) (= (= (f87 (f120 f121 ?v0) ?v1) (f87 (f120 f121 ?v2) ?v1)) (forall ((?v3 S8)) (=> (= (f31 ?v3 (f84 ?v1)) f1) (= (f56 ?v0 ?v3) (f56 ?v2 ?v3)))))))
(assert (forall ((?v0 S7) (?v1 S31) (?v2 S7)) (= (= (f75 (f76 f77 ?v0) ?v1) (f75 (f76 f77 ?v2) ?v1)) (forall ((?v3 S8)) (=> (= (f31 ?v3 (f84 ?v1)) f1) (= (f7 ?v0 ?v3) (f7 ?v2 ?v3)))))))
(assert (forall ((?v0 S10) (?v1 S3) (?v2 S10)) (= (= (f80 (f131 f132 ?v0) ?v1) (f80 (f131 f132 ?v2) ?v1)) (forall ((?v3 S2)) (=> (= (f6 ?v3 (f99 ?v1)) f1) (= (f13 ?v0 ?v3) (f13 ?v2 ?v3)))))))
(assert (forall ((?v0 S60) (?v1 S31) (?v2 S60)) (= (= (f136 (f137 f138 ?v0) ?v1) (f136 (f137 f138 ?v2) ?v1)) (forall ((?v3 S8)) (=> (= (f31 ?v3 (f84 ?v1)) f1) (= (f143 ?v0 ?v3) (f143 ?v2 ?v3)))))))
(assert (forall ((?v0 S57) (?v1 S31) (?v2 S57)) (= (= (f133 (f134 f135 ?v0) ?v1) (f133 (f134 f135 ?v2) ?v1)) (forall ((?v3 S8)) (=> (= (f31 ?v3 (f84 ?v1)) f1) (= (f144 ?v0 ?v3) (f144 ?v2 ?v3)))))))
(assert (forall ((?v0 S53) (?v1 S3) (?v2 S53)) (= (= (f128 (f129 f130 ?v0) ?v1) (f128 (f129 f130 ?v2) ?v1)) (forall ((?v3 S2)) (=> (= (f6 ?v3 (f99 ?v1)) f1) (= (f145 ?v0 ?v3) (f145 ?v2 ?v3)))))))
(assert (forall ((?v0 S24) (?v1 S39) (?v2 S24)) (= (= (f105 (f141 f142 ?v0) ?v1) (f105 (f141 f142 ?v2) ?v1)) (forall ((?v3 S14)) (=> (= (f37 ?v3 (f108 ?v1)) f1) (= (f60 ?v0 ?v3) (f60 ?v2 ?v3)))))))
(assert (forall ((?v0 S47) (?v1 S39) (?v2 S47)) (= (= (f122 (f123 f124 ?v0) ?v1) (f122 (f123 f124 ?v2) ?v1)) (forall ((?v3 S14)) (=> (= (f37 ?v3 (f108 ?v1)) f1) (= (f147 ?v0 ?v3) (f147 ?v2 ?v3)))))))
(assert (forall ((?v0 S23) (?v1 S14) (?v2 S23)) (= (= (f60 (f139 f140 ?v0) ?v1) (f60 (f139 f140 ?v2) ?v1)) (forall ((?v3 S12)) (=> (= (f34 ?v3 (f104 ?v1)) f1) (= (f58 ?v0 ?v3) (f58 ?v2 ?v3)))))))
(assert (forall ((?v0 S50) (?v1 S14) (?v2 S50)) (= (= (f125 (f126 f127 ?v0) ?v1) (f125 (f126 f127 ?v2) ?v1)) (forall ((?v3 S12)) (=> (= (f34 ?v3 (f104 ?v1)) f1) (= (f146 ?v0 ?v3) (f146 ?v2 ?v3)))))))
(assert (forall ((?v0 S31)) (let ((?v_0 (f53 f74 (f75 (f76 f77 f8) ?v0)))) (= (f87 f88 ?v0) (f87 (f100 f101 (f70 (f71 (f72 f73 ?v_0) f79) (f80 (f81 f82 f12) f83))) (f87 (f120 f121 (f85 f86 ?v_0)) ?v0))))))
(assert (forall ((?v0 S2) (?v1 S2) (?v2 S3)) (= (f7 f8 (f70 (f71 (f72 f73 ?v0) ?v1) ?v2)) (f53 (f148 (f149 f150 f79) f55) ?v2))))
(assert (forall ((?v0 S31) (?v1 S31) (?v2 S22) (?v3 S22)) (=> (= ?v0 ?v1) (=> (forall ((?v4 S8)) (=> (= (f31 ?v4 (f84 ?v1)) f1) (= (f56 ?v2 ?v4) (f56 ?v3 ?v4)))) (= (f87 (f120 f121 ?v2) ?v0) (f87 (f120 f121 ?v3) ?v1))))))
(assert (forall ((?v0 S31) (?v1 S31) (?v2 S7) (?v3 S7)) (=> (= ?v0 ?v1) (=> (forall ((?v4 S8)) (=> (= (f31 ?v4 (f84 ?v1)) f1) (= (f7 ?v2 ?v4) (f7 ?v3 ?v4)))) (= (f75 (f76 f77 ?v2) ?v0) (f75 (f76 f77 ?v3) ?v1))))))
(assert (forall ((?v0 S3) (?v1 S3) (?v2 S10) (?v3 S10)) (=> (= ?v0 ?v1) (=> (forall ((?v4 S2)) (=> (= (f6 ?v4 (f99 ?v1)) f1) (= (f13 ?v2 ?v4) (f13 ?v3 ?v4)))) (= (f80 (f131 f132 ?v2) ?v0) (f80 (f131 f132 ?v3) ?v1))))))
(assert (forall ((?v0 S31) (?v1 S31) (?v2 S60) (?v3 S60)) (=> (= ?v0 ?v1) (=> (forall ((?v4 S8)) (=> (= (f31 ?v4 (f84 ?v1)) f1) (= (f143 ?v2 ?v4) (f143 ?v3 ?v4)))) (= (f136 (f137 f138 ?v2) ?v0) (f136 (f137 f138 ?v3) ?v1))))))
(assert (forall ((?v0 S31) (?v1 S31) (?v2 S57) (?v3 S57)) (=> (= ?v0 ?v1) (=> (forall ((?v4 S8)) (=> (= (f31 ?v4 (f84 ?v1)) f1) (= (f144 ?v2 ?v4) (f144 ?v3 ?v4)))) (= (f133 (f134 f135 ?v2) ?v0) (f133 (f134 f135 ?v3) ?v1))))))
(assert (forall ((?v0 S3) (?v1 S3) (?v2 S53) (?v3 S53)) (=> (= ?v0 ?v1) (=> (forall ((?v4 S2)) (=> (= (f6 ?v4 (f99 ?v1)) f1) (= (f145 ?v2 ?v4) (f145 ?v3 ?v4)))) (= (f128 (f129 f130 ?v2) ?v0) (f128 (f129 f130 ?v3) ?v1))))))
(assert (forall ((?v0 S39) (?v1 S39) (?v2 S24) (?v3 S24)) (=> (= ?v0 ?v1) (=> (forall ((?v4 S14)) (=> (= (f37 ?v4 (f108 ?v1)) f1) (= (f60 ?v2 ?v4) (f60 ?v3 ?v4)))) (= (f105 (f141 f142 ?v2) ?v0) (f105 (f141 f142 ?v3) ?v1))))))
(assert (forall ((?v0 S39) (?v1 S39) (?v2 S47) (?v3 S47)) (=> (= ?v0 ?v1) (=> (forall ((?v4 S14)) (=> (= (f37 ?v4 (f108 ?v1)) f1) (= (f147 ?v2 ?v4) (f147 ?v3 ?v4)))) (= (f122 (f123 f124 ?v2) ?v0) (f122 (f123 f124 ?v3) ?v1))))))
(assert (forall ((?v0 S14) (?v1 S14) (?v2 S23) (?v3 S23)) (=> (= ?v0 ?v1) (=> (forall ((?v4 S12)) (=> (= (f34 ?v4 (f104 ?v1)) f1) (= (f58 ?v2 ?v4) (f58 ?v3 ?v4)))) (= (f60 (f139 f140 ?v2) ?v0) (f60 (f139 f140 ?v3) ?v1))))))
(assert (forall ((?v0 S14) (?v1 S14) (?v2 S50) (?v3 S50)) (=> (= ?v0 ?v1) (=> (forall ((?v4 S12)) (=> (= (f34 ?v4 (f104 ?v1)) f1) (= (f146 ?v2 ?v4) (f146 ?v3 ?v4)))) (= (f125 (f126 f127 ?v2) ?v0) (f125 (f126 f127 ?v3) ?v1))))))
(assert (forall ((?v0 S31) (?v1 S22)) (=> (forall ((?v2 S8)) (=> (= (f31 ?v2 (f84 ?v0)) f1) (= (f56 ?v1 ?v2) ?v2))) (= (f87 (f120 f121 ?v1) ?v0) ?v0))))
(assert (forall ((?v0 S3) (?v1 S10)) (=> (forall ((?v2 S2)) (=> (= (f6 ?v2 (f99 ?v0)) f1) (= (f13 ?v1 ?v2) ?v2))) (= (f80 (f131 f132 ?v1) ?v0) ?v0))))
(assert (forall ((?v0 S39) (?v1 S24)) (=> (forall ((?v2 S14)) (=> (= (f37 ?v2 (f108 ?v0)) f1) (= (f60 ?v1 ?v2) ?v2))) (= (f105 (f141 f142 ?v1) ?v0) ?v0))))
(assert (forall ((?v0 S14) (?v1 S23)) (=> (forall ((?v2 S12)) (=> (= (f34 ?v2 (f104 ?v0)) f1) (= (f58 ?v1 ?v2) ?v2))) (= (f60 (f139 f140 ?v1) ?v0) ?v0))))
(assert (forall ((?v0 S3) (?v1 S10) (?v2 S10)) (=> (forall ((?v3 S2)) (=> (= (f6 ?v3 (f99 ?v0)) f1) (= (f13 ?v1 ?v3) (f13 ?v2 ?v3)))) (= (f80 (f131 f132 ?v1) ?v0) (f80 (f131 f132 ?v2) ?v0)))))
(assert (forall ((?v0 S31) (?v1 S7) (?v2 S7)) (=> (forall ((?v3 S8)) (=> (= (f31 ?v3 (f84 ?v0)) f1) (= (f7 ?v1 ?v3) (f7 ?v2 ?v3)))) (= (f75 (f76 f77 ?v1) ?v0) (f75 (f76 f77 ?v2) ?v0)))))
(assert (forall ((?v0 S31) (?v1 S22) (?v2 S22)) (=> (forall ((?v3 S8)) (=> (= (f31 ?v3 (f84 ?v0)) f1) (= (f56 ?v1 ?v3) (f56 ?v2 ?v3)))) (= (f87 (f120 f121 ?v1) ?v0) (f87 (f120 f121 ?v2) ?v0)))))
(assert (forall ((?v0 S31) (?v1 S57) (?v2 S57)) (=> (forall ((?v3 S8)) (=> (= (f31 ?v3 (f84 ?v0)) f1) (= (f144 ?v1 ?v3) (f144 ?v2 ?v3)))) (= (f133 (f134 f135 ?v1) ?v0) (f133 (f134 f135 ?v2) ?v0)))))
(assert (forall ((?v0 S3) (?v1 S53) (?v2 S53)) (=> (forall ((?v3 S2)) (=> (= (f6 ?v3 (f99 ?v0)) f1) (= (f145 ?v1 ?v3) (f145 ?v2 ?v3)))) (= (f128 (f129 f130 ?v1) ?v0) (f128 (f129 f130 ?v2) ?v0)))))
(assert (forall ((?v0 S39) (?v1 S24) (?v2 S24)) (=> (forall ((?v3 S14)) (=> (= (f37 ?v3 (f108 ?v0)) f1) (= (f60 ?v1 ?v3) (f60 ?v2 ?v3)))) (= (f105 (f141 f142 ?v1) ?v0) (f105 (f141 f142 ?v2) ?v0)))))
(assert (forall ((?v0 S39) (?v1 S47) (?v2 S47)) (=> (forall ((?v3 S14)) (=> (= (f37 ?v3 (f108 ?v0)) f1) (= (f147 ?v1 ?v3) (f147 ?v2 ?v3)))) (= (f122 (f123 f124 ?v1) ?v0) (f122 (f123 f124 ?v2) ?v0)))))
(assert (forall ((?v0 S14) (?v1 S23) (?v2 S23)) (=> (forall ((?v3 S12)) (=> (= (f34 ?v3 (f104 ?v0)) f1) (= (f58 ?v1 ?v3) (f58 ?v2 ?v3)))) (= (f60 (f139 f140 ?v1) ?v0) (f60 (f139 f140 ?v2) ?v0)))))
(assert (forall ((?v0 S14) (?v1 S50) (?v2 S50)) (=> (forall ((?v3 S12)) (=> (= (f34 ?v3 (f104 ?v0)) f1) (= (f146 ?v1 ?v3) (f146 ?v2 ?v3)))) (= (f125 (f126 f127 ?v1) ?v0) (f125 (f126 f127 ?v2) ?v0)))))
(check-sat)
(exit)
